interdiction/MCDM/NO_CORR/GEN_FROM_60/17_ITEMS_1000_GEN/K5017W06.KNP.mps
NAME          BLANK   
ROWS
 N  OBJROW
 L  R0000000
COLUMNS
    C0000000  OBJROW     -584.         R0000000  678.        
    C0000001  OBJROW     -513.         R0000000  805.        
    C0000002  OBJROW     -978.         R0000000  478.        
    C0000003  OBJROW     -65.          R0000000  623.        
    C0000004  OBJROW     -69.          R0000000  402.        
    C0000005  OBJROW     -507.         R0000000  759.        
    C0000006  OBJROW     -8.           R0000000  531.        
    C0000007  OBJROW     -473.         R0000000  121.        
    C0000008  OBJROW     -712.         R0000000  130.        
    C0000009  OBJROW     -274.         R0000000  329.        
    C0000010  OBJROW     -392.         R0000000  113.        
    C0000011  OBJROW     -58.          R0000000  577.        
    C0000012  OBJROW     -285.         R0000000  881.        
    C0000013  OBJROW     -143.         R0000000  114.        
    C0000014  OBJROW     -732.         R0000000  471.        
    C0000015  OBJROW     -926.         R0000000  751.        
    C0000016  OBJROW     -269.         R0000000  234.        
RHS
    RHS       R0000000  14444.      
BOUNDS
 BV BOUND     C0000000  1.          
 BV BOUND     C0000001  1.          
 BV BOUND     C0000002  1.          
 BV BOUND     C0000003  1.          
 BV BOUND     C0000004  1.          
 BV BOUND     C0000005  1.          
 BV BOUND     C0000006  1.          
 BV BOUND     C0000007  1.          
 BV BOUND     C0000008  1.          
 BV BOUND     C0000009  1.          
 BV BOUND     C0000010  1.          
 BV BOUND     C0000011  1.          
 BV BOUND     C0000012  1.          
 BV BOUND     C0000013  1.          
 BV BOUND     C0000014  1.          
 BV BOUND     C0000015  1.          
 BV BOUND     C0000016  1.          
ENDATA
