data/MCDM/NO_CORR/GEN_FROM_60/17_ITEMS_1000_GEN/K5017W06.KNP.txt
N 17
M 18
LC 17
LC 18
LC 19
LC 20
LC 21
LC 22
LC 23
LC 24
LC 25
LC 26
LC 27
LC 28
LC 29
LC 30
LC 31
LC 32
LC 33
LR 1
LR 2
LR 3
LR 4
LR 5
LR 6
LR 7
LR 8
LR 9
LR 10
LR 11
LR 12
LR 13
LR 14
LR 15
LR 16
LR 17
LR 18
LO -584
LO -513
LO -978
LO -65
LO -69
LO -507
LO -8
LO -473
LO -712
LO -274
LO -392
LO -58
LO -285
LO -143
LO -732
LO -926
LO -269
OS 1
IC 670
IC 372
IC 535
IC 417
IC 805
IC 149
IC 164
IC 659
IC 152
IC 563
IC 60
IC 807
IC 928
IC 608
IC 458
IC 912
IC 314
IB 4287
